(declare-const conc0 Real)
(assert (and (>= conc0 0) (<= conc0 100)))
(declare-const conc1 Real)
(assert (and (>= conc1 0) (<= conc1 100)))
(declare-const conc2 Real)
(assert (and (>= conc2 0) (<= conc2 100)))
(declare-const conc3 Real)
(assert (and (>= conc3 0) (<= conc3 100)))
(declare-const coef0 Real)
(assert (= coef0 (- (* 0.435127 conc0 conc1) (* 0.566094 conc2))))
(declare-const coef1 Real)
(assert (= coef1 (- (* 0.160693 conc0 conc2) (* 0.189011 conc3))))
(declare-const coef2 Real)
(assert (= coef2 (- (* 0.0826338 conc1 conc1) (* 0.156313 conc3))))
(assert (> (+ (- coef0) (- coef2) (- coef2) 0) 0.00001))
(assert (> (+ coef0 (- coef1) 0) 0.00001))
(assert (> (+ coef1 coef2 0) 0.00001))
(check-sat)
(get-model)
